358
1139
885
1067
1427
493
1130
694
536
1739
1710
958
1382
469
1268
1594
148
1838
1265
1396
1937
1650
329
2119
2065
262
1491
465
695
1880
1218
347
158
1820
1530
760
605
648
360
112
749
747
2009
318
913
858
765
861
1411
1342
